
 102   30
  10   10   10   10   10   10   10   10   10   10   10   10   10   10   10   10   10   10   10   10   10   10   10   10   10   10   10   10   10   10

   0   0   0   0   0   0   0   0   0   0   0   0   0   0   0   0   0   0   0   0   0   0   0   0   0   0   0   0   0   0   0  24 2 3 4 5 6 7 8 10 11 12 13 14 15 16 17 20 23 25 28 30 32 33 36 38 
   7   0   1   0   0   0   0   0   1   0   0   0   0   0   0   0   0   0   0   0   0   0   0   1   0   0   0   1   0   0   0  11 66 59 57 53 48 47 46 43 41 29 9 
   6   0   0   4   0   0   0   0   0   0   0   0   0   0   1   0   0   0   1   0   0   0   0   3   0   1   0   0   0   0   0  17 100 79 78 77 70 66 65 59 57 51 49 46 45 43 41 39 18 
   2   0   0   0   0   0   0   0   0   0   0   0   0   0   0   2   0   0   0   4   0   0   0   0   0   0   2   0   3   0   0  15 99 79 78 68 65 56 54 53 52 51 48 47 34 24 19 
   5   0   0   0   0   1   0   0   0   0   0   0   0   1   0   0   2   0   0   0   0   0   0   0   0   0   0   0   0   0   0  12 100 79 73 53 52 46 44 43 35 29 27 19 
   7   3   0   0   0   0   0   0   0   1   0   0   0   0   5   0   0   0   0   0   0   1   0   0   0   0   4   0   0   0   0  14 101 100 99 79 58 57 54 52 51 48 45 42 27 21 
   9   0   0   0   0   0   1   0   0   0   0   0   0   0   0   0   0   1   0   4   0   0   0   0   0   0   4   0   0   0   0  16 78 76 70 66 64 62 57 55 52 51 50 49 46 43 41 22 
   6   0   0   2   0   0   4   0   0   8   0   0   0   0   0   4   0   0   0   5   1   0   1   0   0   0   0   0   0   0   0  13 101 99 98 79 73 66 65 61 60 48 47 46 19 
  10   0   0   0   0   0   0   0   0   0   0   0   0   0   0   0   0   0   0   0   0   0   0   0   0   0   5   0   4   0   0  18 101 100 99 96 79 76 73 70 69 64 61 60 54 52 51 49 39 27 
   8   0   0   0   0   0   0   0   0   0   0   0   3   0   9   0   0   0   0   0   0   0   0   0   0   0   0   0   0   3   0  16 96 79 76 72 70 69 66 65 61 60 57 54 49 48 47 27 
   2   0   0   0   0   5   0   0   0   0   0   0   0   0   0   0   0   0   5   0   0   0   0   0   0   0   0   0   0   0   0  13 101 99 97 78 76 69 64 62 55 50 47 43 31 
   4   0   0   0   0   0   0   0   0   0   0   0   0   0   0   0   0   0   0   0   0   0   0   0   0   5   0   0   0   0   1   9 100 79 65 60 54 53 52 50 19 
   8   3   0   0   1   5   0   0   0   0   0   0   0   0   0   0   0   0   0   7   0   0   0   8   0   0   0   0   0   0   0  15 99 98 69 66 62 57 56 55 54 50 46 43 41 37 35 
   4   0   0   0   0   0  10   0   0   0   0   1   0   7   0   0   0   0   0   0   0   0   0   0   0   0   0   0   9   0   0  16 100 75 70 69 66 63 61 60 57 56 55 53 50 49 40 39 
   5   0   0   3   0   0   0   0   0   0   0   0   0   0   9   0   0   0   0   0   0   7   0   4   0   0   0   0   0   3   0  15 101 78 74 65 63 62 61 57 56 55 54 50 48 40 37 
  10   0   5   0   0   0   0   0   0   0   0   0   0   0   0   9   0  10   0   0   0   7   6   0   0   0   0   0   0   0   3   9 78 70 61 60 55 53 52 41 26 
   1   0   0   0   0   0   0   0   9   0   0   0   2   0   0   0   6   6   0   0   8   6   0   0   0   0   0   0   0   0   0  14 99 79 78 77 75 66 64 62 57 55 52 50 46 40 
   4   0   0   0   0   0   0   0   4   0   0   0   0   8   0   0   0   0   0   0   0   0   0   0   0   0   3   0   0   0   0  13 101 75 74 69 64 63 62 61 58 56 52 50 40 
  10   0   0   0   0   0   8   0   0   9   0   0   0   0   0   0   6   5   0   0   0   0   0   0   0   0   0   0   0   0   9  14 97 88 86 77 76 75 74 70 69 64 62 57 55 41 
   6   0   0   0   0   0   0   1   0   0   0   0   7   0   5   0   0   0   0   0   0   0   0   0   0   0   0   0   0   0   7  12 100 79 78 74 73 64 63 60 57 54 53 39 
   2   0   0   0   9   0   0   0   0   0   0   0   0   2   0   0   0   0   0   0   8   0   0   0   2   0   0   0   0   0   0   8 98 97 75 69 64 50 43 35 
   2   0   0   0   0   0   0   0   0   0   0   0   0   0   0   0   7   0   0   0   0   6   0   0   0   6   0   0   0   0   3  16 99 98 97 96 95 94 92 91 86 84 82 73 72 71 69 47 
  10   0   0   0   0   0   0   0   0   0   0   0   0   6   0   0   0   0   0   0   0   0   0   8   0   0   0   0   0   0   2  16 99 98 97 96 95 88 79 73 72 71 70 64 62 61 60 48 
   4   0   0   0   0   0   0   0   0   0   0   0   0  10   0   0   0   0   4   0   6   0   0   0   0   0   0   0   0   0   0  11 88 86 74 72 71 70 63 61 60 57 50 
   5  10   0   0   0   5   0   0   4   0   0   0   0   0   0   3   0   0   0   0   0   0   0   0   0   0   4   0   0   7   0  10 98 96 93 87 77 75 72 64 56 43 
   9   0   0   0   0   0   0   0   0   0   0   0   0   0   0   0   0   6   0   0   0   0   0   0   0   0   5  10   0   0   9   9 99 88 84 82 75 74 71 50 40 
   4   0   0   0   0   0   0   0   0   0   0   0   0   0   0   0   0   0   0   0   0   0   0   0   0   0   0   0   0   0   0  14 97 95 94 93 90 89 88 86 78 75 74 63 62 55 
   9   9  10   0   0   0   0   0   0   0   0   0   0   0   0   0   0   0   0   0   0   0   0   0   0   0   0   0   0   0   0  13 96 94 93 90 88 86 78 76 75 73 70 60 55 
   4   0   0   0   0   0   6   0   0   7   0   8   0   0   3   0   0   0   0   5   4   0   0   0   0   0   6   0   0   0   0  14 101 92 91 90 86 82 77 76 74 72 71 70 67 65 
   1   0   0   0   0   0   0   0   0   0   0   6   0   0   0   0   0   0   0   6   0   0   0   0   0   0   0   8   0   0   5  12 99 98 97 95 94 91 89 75 73 68 60 52 
   6   0   0   0   0   8   0   0   0   0   0   0   0   0   0   0   0   0   0   0   0   0   6   0   0   0   0   0   0   0   0   9 100 98 88 86 75 73 61 57 41 
   6   0   0   0   0   0   0   0   6   0   0   0   0   0   0   0   0   0   0   0   0   0   0   0   0   5   0   6   0   0   0  10 96 94 93 90 89 78 76 66 60 55 
   8   0   0   0   0   0   0   0   0   0   0   0   6   6   0   0   0   0   0   0   0   0   0   0   0   0   0   0   0   0   0   9 99 98 96 93 90 73 62 55 52 
   2   0   0   5   0   0   0   0   0   0   0   0   0   0   6   0   0   0   0   0   0   0   0   0   0   0   0   0   0   0   0   7 96 93 89 87 74 71 43 
   9   0   0   0   0   8   0   0   0   0   0   0   0   0   6   0   0   7   0   5   0   0   0   0   0   0   0   0   0   0   4  11 96 95 93 90 89 88 77 72 71 61 60 
   4   0   0   0   0   5   0   0   4   8   0   0   0   0   0   0   8   0   0   0   0   5   6   0   0   0   0   4   6   0   0  11 95 94 92 91 89 88 86 83 82 75 57 
  10   6   0   0   5   0   0   0   0   0   0   0   0   0   0   0   0   0   0   0   0   0   0   0   0   7   0   0   0   0   0  14 97 92 91 90 89 88 87 86 84 83 82 81 77 76 
   1   0   0   0   0   0   0   0   0   0   0   0   0   0   0   7   0   0   0   0   4   0   0   0   2   0   0   0   0   0   0  15 98 96 95 93 92 91 90 89 88 87 84 83 82 81 80 
   5   0   0   0   0   7   0   0   0   0   0   0   0   0   0   0   0   0   0   0   0   0   0   0   6   0   0   0   0  10   6  11 97 94 90 89 88 87 86 85 83 72 62 
   9   0   0   0   0   0   0   6   0   0   1   0   0   0   0   6   0   0   0   0   0   0   0   0   0   0   0   0   0   0   0  12 97 96 95 94 91 90 89 86 80 76 73 72 
   6   0   0   8   0   0   0   0   0   7   7   0   0   0   0   0   4   0   0   0   0   0   0   0   0   0   0   0   0   0   8   9 96 95 94 93 87 84 82 72 63 
   7   0   0   0   0   0   0   0   0   3   0   0   0   0   8   0   8   0   0   0   0   0   0  10   0   0   0   0   0   0   5   7 92 91 89 88 86 65 64 
   8   0   0   0   0   0   0   0   0   0   0   0   0   0   0   0   0   0   0   4   0   0   8   7   0   0   7   5   0   0   0   6 95 90 88 86 61 60 
   5   0   0   0   0   9   0   0   0   0   0   0   0   0   0   0   0   0   0   0   0   0   0   0   0   0   0   8   4   0   0   5 99 92 83 82 54 
   6   4   0   0   0   0   9   0   0   0   0   0  10   0   0   0   3   0   0  10   6   0   0   7   0   0   0   0   0   0   6   4 88 86 82 55 
   5   0   0   0   0   0   0   0   0   0   9   0   0   0   0   0   0   5   0   0   0   0   0   0   7   0   0   6   0   0   0   9 97 93 90 87 85 83 82 80 74 
   7   8   0   0   0   0   0   0  10   0   0   0   0   0   0   0   0   0   0   6   0   0   0   0   0   0   0   0   0   0   8   8 100 93 89 88 87 77 75 74 
   8   0   0   0   0   0   7   0   5   0   0   0   0   0   0   0   7   0   0   0   9   7   0   0   0   0   0   0  10   0   0   9 94 92 90 87 85 84 83 82 80 
   4   7   0   4   0   0   0   0   0   0   0   0   0   8   0   0   0   0   0   0   0   4   0   0   8   0   0   0   0   0   4   9 98 95 93 90 86 85 82 81 80 
  10   0   0   0   7   0   6   0   0   0   0   0   0   0   0   0   0   0   6   0   0   0   0   0   0   0   0   0   0   0   0   8 96 95 94 92 89 87 80 73 
  10   7   0   0   0   0   0   0   3   0   0   4   0   0   0   0   6   0   0   0   0   0   0   0   0   0   0   0   0   4   0   8 97 90 88 86 84 82 81 71 
   8   0   0   0   0   0   0   0   0   0   0   0   0   0   0   0   0   0   0   0   0   0   0   0   0   0   0   0   0   0   0   8 88 87 86 84 83 82 81 80 
   4   0   0   0   0   0   0   0   0   0   0   0   0   6   0   0   4   0   0   0   0   0   0   0   0   0   0   0   0   0   0   7 98 90 88 82 81 80 76 
   1   0   0   4   0   0   0   0   0   0   0   0   0   6   0   0   0   0   0   0   0   0   0   0   8   0   0   5   0   0   0   7 94 89 87 86 84 81 80 
   9   0   0   0   0   0   0  10   0   0   0   0   4   0   0   0   0   0   0   0   0   0   0   0   0   0   0   0   0   0   0   6 91 87 84 81 80 71 
   2   0   0   0   0   0   0   0   0   0   0   0   0   0   0   0   0   4   0   0   0   0   0   6   0   0   0   6   0   0   0   6 89 88 86 82 80 71 
   4   0   0   0   4   0   4   0   0   0   0   0   0   0   0   0   0   0   0   0   0   0   0   0   0   6   0   0   0   0   0   6 93 90 85 84 81 80 
   7   0   0   4   0   0   0   0   0   8   0   0   0   0   0   0   0   0   0   0   7   0   0   0   0   0   6   0   0   0   0   5 93 91 89 86 71 
   7   0   0   0   0   0   0   0  10   0   0   5   0  10   0   0   0   0   0   0   0   0   0   0  10   0   0   0   0   0   0   4 96 93 86 74 
   2   0   0   0   0   0   2   0   0   0   0   0   0   0   0   0   0   0   5   0   0   0   0   0   0   4   0   5   0   0   0   3 92 85 82 
  10   0   0   0   0   3   0   9   0   0   0  10   0   0   9   0   0   0   0   0   0   6   0   9   0   0  10   0   0   0   0   3 91 84 80 
   8   0   0   0   8   0   0   0   0   0   0   0   7   0   0   0   0   0   0   0   0   0   0   0   0   0   0   0   0   0   0   3 92 82 80 
  10   0   0   0   0   0   0   0   0   0   0   0   0   0   0   0   0   0   0   0   0   8   0   0   0   6  10   0   0   0   0   3 91 85 80 
   1   3   0   0   0   0   0   0   0   7   0   0   0   0   0   0   0   0   0   5   0   0   0   0   0   0   0   0   7   0   0   3 82 81 80 
   2   0   0   0   0   6   0   0   0   7   0   0   0   0   0   0   0   0   0   0   0   6   0   0   5   0   0   8   6   0   0   3 93 87 83 
   6   0   0   9   0   0   0   0   5   0   0   8   0   0   0   0   0   0   0   8   0   0   0   0   0   0   0   0   0   0   0   3 86 84 83 
   8   0   0   0   0   8   7   0   0   0   0   0   0   0   0   8   0   0   0   0   0   0   0   0   0   0   0   0   0   0   0   3 88 84 83 
   4   4   0   0   0  10   0   0   0   0   0   0   0   0   0   7   0   0   0   0   0   6   0   0   0   0   0   0   0   0   0   3 90 86 82 
   6   0   0   9   0   0   0   0   0   0   7   0   0   0   0   0   0   0   0   3   0   0   0   0   2   0  10   0   0   4   0   2 89 87 
   1   0   0   0   0   0   0   0   0   0   0   0   0   5   7  10   0   0   0   0   0   0   0   0   0   0   0   0  10   0   0   2 89 80 
   8   0   0   0   5   7   0   0   0   0   0   0   0   0   0   0   0   0   0   0   0   0   0   0   0   0   0   0   0   0   0   1 83 
   8   0   0   0   0   0   0   0   0   0   0   0   0   0   0   0   0   0   0   0   0   0   0   0   0   0   6   0   0   4   0   1 81 
   3   0   0  10   0   3   0   0   0   0   0   0   0   0   0   0   0   0   0   0   0   0   0   0   0   0   0   0   0   0   0   1 85 
   1   7   0   0   0   0   0   0   0   0   0   4   0  10   0   8   0   0   0   0   0   0   0   0   0   0   7   0   0   0   0   1 81 
   2   0   0   0   0   0   0   0   0   0   0   0   0   0   0   0   0   0   0   0   0   0   0   0   0   0   0   0   0   0   0   1 80 
   5   0   0   0   6   0   0   0   0   5   0   0   0   0   4   0   0   0   0   9   0   0   0   0   0   0   0   0   0   0   0   1 85 
   6   0   0   0   0   0   0   0   6   4   0   0   0   0   0   3   0   0   0   0   0   0   0   4   0   0   0   0   0   0   0   1 80 
   8   0   0   0   0   0   0   0   0   0   0   0   0   0   0   0   0   0   0   0   0   5   0   0   0   9   6   0   0   0   0   1 81 
   9   7   0   0   0   0   0   5   0   0   0   0   0   0   0   0   5   0   0   0   0   6   0   0   6   0   0   0   0   0   0   1 80 
   2   0   0   5   0   0   0   0   0   0   0   0   0   0   0   0   0   0   0  10   0   0   0   0   6   0   0   0   0   0   0   1 102
   2   0   0   0   0   0   0   0   0   0   0   0   0   0   0   0   0   0   0   0   0   0   6   0   0   0   2   0   0   0   0   1 102
   7   0   0   0   7   8   0   0   0   0   0   5   0   0   0   0   0   0   0   0   0   0   0   0   0   0   0   0   0   8   0   1 102
   2   0   0   0   0   0   0   0   0   0   0   0   0   0   0   0   0   0   0   0   0   4   0   0   0   0   0   0   0   0   0   1 102
  10   0   0   0   0   0   0   0   0   0   0   0   0   0   0   0   0   0   0   0   0   0   0   0   0   0   5   0   0   0   0   1 102
   5   0   0   0   0   0   0   0   7   0   7   0   0   0   0   0   0   0   0   0   0  10   0   0   0   0   0   0   0   0   0   1 102
   6   0   0   0   6   0   0   5   0   0   7   0   0   0   0   0   0   0   0   0   0   0   0   0   0   0   0   0   0   0   0   1 102
   4   0   8   0   0   0   0   0  10   0   0   8   0   0   0   0   0   0   8   0   0   0   0   0   9   0   0   5   5   0   0   1 102
   7   0   6   0   7   0   0   0   0   0   0   7   0   0   0   0   8   0   0   0   0   6   0   0   0   0   0   4   0   0   0   1 102
   6   0   0  10   0   0   0   0   0   0   0   0   0   0   0   0   0   0   5   0   0   0   0   0   0   0   0   0   0   0   0   1 102
   8   0   0   0   0   0   0   0   0   0   0   0   0   3   0   0   0   0   6   0   0   0   0   0   0   7   0   0   0   0   0   1 102
   6   0   0   0   0   0   0   0   0   0   0   0   0   0   0   0   0  10   0   0   0   0   0   0   0   9   0   0   0   0   0   1 102
   7   0   0   0   0   0   0   6   0   7   0   0   0   0   0  10  10   0   8   0   0   8   0   5   0   0   0   0   5   0  10   1 102
   5   7   0   0   8   4   0   0   0   0   5   0   0   0   0   0   0   0  10   0   0   0   0   0   0   0   0   0   7   0   0   1 102
   9   0   0   3   0   0   0   0   0   0   0   0   0   0   0   0   0   0   8   0   0   0   0   0   0   0   0   0   0   0   0   1 102
   7   0   0   0   0   0   0   0   0   5   0   0   0   0   0   0   0   0   0   0   0   6   0   6   0   7   0   0   0   0   0   1 102
   3   0   0   0   0   0   0   0   0   0   0   0   0   2   0   0   0   0   0   0   0   0   0   0   0   0   0   7   2   8   8   1 102
   3   5   0   6   0   0   0   0   0   0   0   0   7   0   0   1   0   6   0   0   0   0   0   0   0   0   7   0   6   0   0   1 102
   1   0   0  10   0   0   0   0   0   4   0   0   0   0   0   0   0   0   0   6   0   0   0   0   0   0   8   0   0   0   0   1 102
   1   0   0   0   0   0   8   0   0   0   0   0   0   0   0   0   0   0   0   0   7   6   0   0   0   0   9   0   0   9   0   1 102
   8   0   0   0   0   0   0   0   0   0   5   0   0   0   0   0   0   6   0   0   0   0   9   0   7   0   0   0   0   0   0   1 102
   5   0   0   0   5   0   0   0   0   0   0   0   8   0   0   0   6   0   0   5   0   0   0   0   0   0   0   8   0   0  10   1 102
   0   0   0   0   0   0   0   0   0   0   0   0   0   0   0   0   0   0   0   0   0   0   0   0   0   0   0   0   0   0   0   0 
